586.43,64.21,73.33
551.38,68.29,77.99
601.02,62.65,71.55
530.69,70.95,81.03
564.66,66.68,76.16
539.45,69.8,79.71
578.96,65.03,74.27
566.24,66.49,75.94
525.91,71.59,81.77
611.9,61.53,70.28
622.12,60.52,69.12
558.78,67.38,76.96
570.39,66.01,75.39
593.05,63.49,72.51
568.37,66.25,75.66
580.44,64.87,74.09
579.07,65.02,74.26
588.96,63.93,73.01
616.51,61.07,69.75
552.71,68.12,77.8
